W=5;
H=7;

MAX_TIME=W*H;
MAX_TRACKS=14;
SEMAPHORE_SUPPLY=1;

TARGET=(7,5);

TRAINS=[(7,1,TOP),(2,5,TOP)];
DECOYS=[];

INIT_POS=[
(1,3,ROCK),
(2,3,ROCK),
(2,4,STRAIGHT_TD),
(2,5,STRAIGHT_TD),
(3,3,ROCK),
(4,2,DSWITCH_T_D_L),
(4,3,ROCK),
(5,3,ROCK),
(6,3,ROCK),
(7,1,STRAIGHT_TD),
(7,3,ROCK),
(7,5,STRAIGHT_RL),
];
TUNNEL_PAIRS=[
  (4, 1, RIGHT, 4, 5, LEFT),
];

GATES=[];
ACTIVATIONS=[
(2,4,1),
];

DSWITCHES=[
(4,2,1),
];
STATIONS=[];
